db/data/175721012226761320472054059491067517915.z3.out
sat
-------------------
984.715203872
